<number of tasks>
58

<cycle time>
92

<task times>
1 10
2 53
3 41
4 36
5 35
6 17
7 34
8 23
9 14
10 52
11 33
12 34
13 12
14 52
15 12
16 33
17 44
18 7
19 15
20 13
21 29
22 37
23 43
24 23
25 24
26 9
27 16
28 12
29 26
30 22
31 51
32 47
33 34
34 23
35 12
36 52
37 12
38 33
39 44
40 7
41 15
42 13
43 29
44 37
45 43
46 23
47 24
48 9
49 16
50 12
51 26
52 12
53 52
54 12
55 33
56 44
57 7
58 15

<precedence relations>
1,9
2,25
3,21
3,22
4,10
5,36
6,23
6,24
7,43
8,44
9,11
11,13
11,14
11,15
12,17
13,17
14,17
15,17
16,18
17,20
18,19
19,23
20,21
20,25
21,26
21,44
22,27
23,31
24,31
25,38
26,29
27,30
28,32
28,33
29,31
30,34
31,36
32,45
33,35
34,36
35,43
36,37
36,38
37,39
37,40
37,41
38,52
39,43
40,43
41,42
42,43
43,45
44,45
45,46
45,48
45,49
46,47
46,50
47,51
48,55
49,58
50,58
51,52
52,53
53,54
54,55
54,56
55,57
56,57
57,58

<setup times forward>
1,2:10
1,3:4
1,4:3
1,5:2
1,6:6
1,7:1
1,8:9
1,9:5
1,10:4
1,12:2
1,16:12
1,18:3
1,19:2
1,22:9
1,23:6
1,24:3
1,27:15
1,28:2
1,30:1
1,32:9
1,35:15
2,1:10
2,3:14
2,4:7
2,5:8
2,6:16
2,7:11
2,8:19
2,9:5
2,10:14
2,11:22
2,12:12
2,13:7
2,14:3
2,15:24
2,16:22
2,17:1
2,18:13
2,19:8
2,20:3
2,21:3
2,22:19
2,23:4
2,24:13
2,25:15
2,26:20
2,27:25
2,28:8
2,29:23
2,30:11
2,31:3
2,32:1
2,33:10
2,34:10
2,35:25
2,36:7
2,37:21
2,39:14
2,40:20
2,41:21
2,42:25
2,43:9
2,44:12
2,45:14
2,46:5
2,47:18
2,48:20
2,49:14
2,50:4
2,51:10
3,1:4
3,2:14
3,4:7
3,5:6
3,6:2
3,7:3
3,8:5
3,9:9
3,11:8
3,12:2
3,13:7
3,14:11
3,15:10
3,16:8
3,17:13
3,18:1
3,19:6
3,20:11
3,21:11
3,22:5
3,23:10
3,24:1
3,25:1
3,28:6
3,32:13
3,33:4
3,35:11
4,1:3
4,2:7
4,3:7
4,5:1
4,6:9
4,7:4
4,8:12
4,9:2
4,10:7
4,11:15
4,12:5
4,14:4
4,15:17
4,16:15
4,17:6
4,18:6
4,19:1
4,20:4
4,21:4
4,22:12
4,23:3
4,24:6
4,25:8
4,26:13
4,27:18
4,28:1
4,29:16
4,30:4
4,31:4
4,32:6
4,33:3
4,34:3
4,35:18
4,37:14
4,38:6
4,39:7
4,40:13
4,41:14
4,42:18
4,43:2
4,44:5
4,45:7
4,46:2
4,47:11
4,48:13
4,49:7
4,50:3
4,51:3
4,52:14
4,53:2
4,54:15
4,55:1
4,56:5
4,57:8
4,58:18
5,1:2
5,2:8
5,3:6
5,4:1
5,6:8
5,7:3
5,8:11
5,9:3
5,10:6
5,11:14
5,12:4
5,13:1
5,14:5
5,15:16
5,16:14
5,17:7
5,18:5
5,20:5
5,21:5
5,22:11
5,23:4
5,24:5
5,25:7
5,26:12
5,27:17
5,29:15
5,30:3
5,31:5
5,32:7
5,33:2
5,34:2
5,35:17
5,36:1
5,44:4
6,1:6
6,2:16
6,3:2
6,4:9
6,5:8
6,7:5
6,8:3
6,9:11
6,10:2
6,11:6
6,12:4
6,13:9
6,14:13
6,15:8
6,16:6
6,17:15
6,18:3
6,19:8
6,20:13
6,21:13
6,22:3
6,23:12
6,24:3
6,25:1
6,26:4
6,27:9
6,28:8
6,29:7
6,30:5
6,32:15
6,33:6
6,34:6
6,35:9
6,44:4
7,1:1
7,2:11
7,3:3
7,4:4
7,5:3
7,6:5
7,8:8
7,9:6
7,10:3
7,11:11
7,12:1
7,13:4
7,14:8
7,15:13
7,16:11
7,17:10
7,18:2
7,19:3
7,20:8
7,21:8
7,22:8
7,23:7
7,24:2
7,25:4
7,26:9
7,27:14
7,28:3
7,29:12
7,31:8
7,32:10
7,33:1
7,34:1
7,35:14
7,36:4
7,37:10
7,38:10
7,39:3
7,40:9
7,41:10
7,42:14
7,43:2
7,44:1
8,1:9
8,2:19
8,3:5
8,4:12
8,5:11
8,6:3
8,7:8
8,9:14
8,10:5
8,11:3
8,12:7
8,13:12
8,14:16
8,15:5
8,16:3
8,17:18
8,18:6
8,19:11
8,20:16
8,21:16
8,23:15
8,24:6
8,25:4
8,26:1
8,27:6
8,28:11
8,29:4
8,30:8
8,31:16
8,32:18
8,33:9
8,34:9
8,35:6
8,36:12
8,37:2
8,38:18
8,39:5
8,40:1
8,41:2
8,42:6
8,43:10
8,44:7
9,2:5
9,3:9
9,4:2
9,5:3
9,6:11
9,7:6
9,8:14
9,10:9
9,11:17
9,12:7
9,16:17
9,18:8
9,19:3
9,22:14
9,23:1
9,24:8
9,27:20
9,28:3
9,30:6
9,32:4
9,33:5
9,34:5
9,35:20
10,1:4
10,2:14
10,5:6
10,6:2
10,7:3
10,8:5
10,9:9
10,11:8
10,12:2
10,13:7
10,14:11
10,15:10
10,16:8
10,17:13
10,18:1
10,19:6
10,20:11
10,21:11
10,22:5
10,23:10
10,24:1
10,25:1
10,26:6
10,27:11
10,28:6
10,29:9
10,30:3
10,31:11
10,32:13
10,33:4
10,34:4
10,35:11
10,36:7
10,37:7
10,38:13
10,40:6
10,41:7
10,42:11
10,43:5
10,44:2
10,46:9
10,47:4
10,48:6
10,50:10
10,51:4
10,52:7
10,53:5
10,54:8
10,55:8
10,56:12
10,57:1
10,58:11
11,2:22
11,3:8
11,4:15
11,5:14
11,6:6
11,7:11
11,8:3
11,10:8
11,12:10
11,13:15
11,14:19
11,15:2
11,18:9
11,19:14
11,22:3
11,23:18
11,24:9
11,27:3
11,28:14
11,30:11
11,32:21
11,33:12
11,34:12
11,35:3
12,1:2
12,2:12
12,3:2
12,4:5
12,5:4
12,6:4
12,7:1
12,8:7
12,9:7
12,10:2
12,11:10
12,13:5
12,14:9
12,15:12
12,16:10
12,17:11
12,18:1
12,19:4
12,22:7
12,23:8
12,24:1
12,27:13
12,28:4
12,30:1
12,32:11
12,33:2
12,34:2
12,35:13
13,2:7
13,3:7
13,5:1
13,6:9
13,7:4
13,8:12
13,10:7
13,12:5
13,14:4
13,15:17
13,16:15
13,17:6
13,18:6
13,19:1
13,22:12
13,23:3
13,24:6
13,27:18
13,28:1
13,30:4
13,32:6
13,33:3
13,34:3
13,35:18
14,2:3
14,3:11
14,4:4
14,5:5
14,6:13
14,7:8
14,8:16
14,10:11
14,12:9
14,13:4
14,15:21
14,16:19
14,17:2
14,18:10
14,19:5
14,22:16
14,23:1
14,24:10
14,27:22
14,28:5
14,30:8
14,32:2
14,33:7
14,34:7
14,35:22
15,2:24
15,3:10
15,4:17
15,5:16
15,6:8
15,7:13
15,8:5
15,10:10
15,12:12
15,13:17
15,14:21
15,16:2
15,17:23
15,18:11
15,19:16
15,22:5
15,23:20
15,24:11
15,27:1
15,28:16
15,30:13
15,32:23
15,33:14
15,34:14
15,35:1
16,1:12
16,2:22
16,3:8
16,4:15
16,5:14
16,6:6
16,7:11
16,8:3
16,9:17
16,10:8
16,12:10
16,13:15
16,14:19
16,15:2
16,17:21
16,18:9
16,20:19
16,21:19
16,22:3
16,24:9
16,25:7
16,26:2
16,27:3
16,28:14
16,29:1
16,30:11
16,32:21
16,33:12
16,34:12
16,35:3
16,44:10
17,2:1
17,3:13
17,4:6
17,5:7
17,6:15
17,7:10
17,8:18
17,10:13
17,16:21
17,18:12
17,19:7
17,20:2
17,22:18
17,23:3
17,24:12
17,27:24
17,28:7
17,30:10
17,33:9
17,34:9
17,35:24
18,1:3
18,2:13
18,3:1
18,4:6
18,5:5
18,6:3
18,7:2
18,8:6
18,9:8
18,10:1
18,11:9
18,12:1
18,13:6
18,14:10
18,15:11
18,17:12
18,19:5
18,20:10
18,21:10
18,22:6
18,25:2
18,26:7
18,27:12
18,28:5
18,29:10
18,30:2
18,32:12
18,33:3
18,34:3
18,35:12
18,44:1
19,1:2
19,2:8
19,3:6
19,4:1
19,6:8
19,7:3
19,8:11
19,9:3
19,10:6
19,11:14
19,12:4
19,13:1
19,14:5
19,15:16
19,17:7
19,20:5
19,21:5
19,22:11
19,23:4
19,24:5
19,25:7
19,26:12
19,27:17
19,29:15
19,30:3
19,32:7
19,33:2
19,34:2
19,35:17
19,44:4
20,2:3
20,3:11
20,4:4
20,5:5
20,6:13
20,7:8
20,8:16
20,10:11
20,16:19
20,18:10
20,19:5
20,22:16
20,23:1
20,24:10
20,25:12
20,27:22
20,28:5
20,30:8
20,32:2
20,33:7
20,34:7
20,35:22
21,2:3
21,4:4
21,5:5
21,6:13
21,7:8
21,8:16
21,10:11
21,16:19
21,18:10
21,19:5
21,22:16
21,23:1
21,24:10
21,25:12
21,26:17
21,27:22
21,28:5
21,30:8
21,32:2
21,33:7
21,34:7
21,35:22
21,44:9
22,1:9
22,2:19
22,4:12
22,5:11
22,6:3
22,7:8
22,9:14
22,10:5
22,11:3
22,12:7
22,13:12
22,14:16
22,15:5
22,16:3
22,17:18
22,18:6
22,19:11
22,20:16
22,21:16
22,23:15
22,24:6
22,25:4
22,26:1
22,27:6
22,28:11
22,29:4
22,31:16
22,32:18
22,33:9
22,35:6
22,44:7
23,1:6
23,2:4
23,3:10
23,4:3
23,5:4
23,7:7
23,8:15
23,9:1
23,10:10
23,11:18
23,12:8
23,13:3
23,14:1
23,15:20
23,17:3
23,20:1
23,21:1
23,22:15
23,24:9
23,25:11
23,26:16
23,27:21
23,28:4
23,29:19
23,30:7
23,31:1
23,32:3
23,33:6
23,34:6
23,35:21
23,44:8
24,1:3
24,2:13
24,3:1
24,4:6
24,5:5
24,7:2
24,8:6
24,9:8
24,10:1
24,11:9
24,12:1
24,13:6
24,14:10
24,15:11
24,16:9
24,17:12
24,19:5
24,20:10
24,21:10
24,22:6
24,23:9
24,25:2
24,26:7
24,27:12
24,28:5
24,29:10
24,30:2
24,31:10
24,32:12
24,33:3
24,34:3
24,35:12
24,44:1
25,3:1
25,4:8
25,5:7
25,6:1
25,7:4
25,8:4
25,10:1
25,16:7
25,18:2
25,19:7
25,21:12
25,22:4
25,23:11
25,24:2
25,26:5
25,27:10
25,28:7
25,29:8
25,30:4
25,31:12
25,32:14
25,33:5
25,34:5
25,35:10
25,36:8
25,37:6
25,38:14
25,39:1
25,40:5
25,41:6
25,42:10
25,43:6
25,44:3
25,45:1
25,46:10
25,47:3
25,48:5
25,49:1
25,50:11
25,51:5
26,2:20
26,4:13
26,5:12
26,6:4
26,7:9
26,8:1
26,10:6
26,16:2
26,18:7
26,19:12
26,22:1
26,23:16
26,24:7
26,25:5
26,27:5
26,28:12
26,29:3
26,30:9
26,32:19
26,33:10
26,34:10
26,35:5
26,44:8
27,1:15
27,2:25
27,4:18
27,5:17
27,6:9
27,7:14
27,8:6
27,9:20
27,10:11
27,11:3
27,12:13
27,13:18
27,14:22
27,15:1
27,16:3
27,17:24
27,18:12
27,19:17
27,20:22
27,21:22
27,23:21
27,24:12
27,25:10
27,26:5
27,28:17
27,29:2
27,30:14
27,31:22
27,32:24
27,33:15
27,44:13
28,1:2
28,2:8
28,3:6
28,4:1
28,6:8
28,7:3
28,8:11
28,9:3
28,10:6
28,11:14
28,12:4
28,13:1
28,14:5
28,15:16
28,16:14
28,17:7
28,18:5
28,20:5
28,21:5
28,22:11
28,23:4
28,24:5
28,25:7
28,26:12
28,27:17
28,29:15
28,30:3
28,31:5
28,32:7
28,33:2
28,34:2
28,36:1
28,37:13
28,38:7
28,39:6
28,40:12
28,41:13
28,42:17
28,44:4
29,2:23
29,4:16
29,5:15
29,6:7
29,7:12
29,8:4
29,10:9
29,16:1
29,18:10
29,19:15
29,22:4
29,23:19
29,24:10
29,25:8
29,27:2
29,28:15
29,30:12
29,31:20
29,32:22
29,33:13
29,34:13
29,35:2
29,44:11
30,1:1
30,2:11
30,4:4
30,5:3
30,6:5
30,8:8
30,9:6
30,10:3
30,11:11
30,12:1
30,13:4
30,14:8
30,15:13
30,16:11
30,17:10
30,18:2
30,19:3
30,20:8
30,21:8
30,23:7
30,24:2
30,25:4
30,26:9
30,28:3
30,29:12
30,31:8
30,32:10
30,33:1
30,34:1
30,35:14
30,44:1
31,2:3
31,4:4
31,5:5
31,7:8
31,8:16
31,10:11
31,22:16
31,25:12
31,27:22
31,28:5
31,30:8
31,32:2
31,33:7
31,34:7
31,35:22
31,36:4
31,44:9
32,1:9
32,2:1
32,3:13
32,4:6
32,5:7
32,6:15
32,7:10
32,8:18
32,9:4
32,10:13
32,11:21
32,12:11
32,13:6
32,14:2
32,15:23
32,16:21
32,18:12
32,19:7
32,20:2
32,21:2
32,22:18
32,23:3
32,24:12
32,25:14
32,26:19
32,27:24
32,29:22
32,30:10
32,31:2
32,33:9
32,34:9
32,35:24
32,36:6
32,37:20
32,39:13
32,40:19
32,41:20
32,42:24
32,43:8
32,44:11
32,45:13
33,2:10
33,3:4
33,4:3
33,5:2
33,6:6
33,7:1
33,8:9
33,9:5
33,10:4
33,11:12
33,12:2
33,13:3
33,14:7
33,15:14
33,16:12
33,17:9
33,18:3
33,19:2
33,20:7
33,21:7
33,22:9
33,23:6
33,24:3
33,25:5
33,26:10
33,27:15
33,29:13
33,30:1
33,31:7
33,32:9
33,35:15
33,36:3
33,37:11
33,38:9
33,39:4
33,40:10
33,41:11
33,42:15
33,44:2
34,2:10
34,4:3
34,5:2
34,6:6
34,7:1
34,8:9
34,9:5
34,10:4
34,11:12
34,12:2
34,13:3
34,14:7
34,15:14
34,16:12
34,17:9
34,18:3
34,19:2
34,20:7
34,21:7
34,23:6
34,24:3
34,25:5
34,26:10
34,28:2
34,29:13
34,31:7
34,32:9
34,35:15
34,36:3
34,44:2
35,1:15
35,2:25
35,3:11
35,4:18
35,5:17
35,6:9
35,7:14
35,8:6
35,9:20
35,10:11
35,11:3
35,12:13
35,13:18
35,14:22
35,15:1
35,16:3
35,17:24
35,18:12
35,19:17
35,20:22
35,21:22
35,22:6
35,23:21
35,24:12
35,25:10
35,26:5
35,29:2
35,30:14
35,31:22
35,32:24
35,34:15
35,36:18
35,37:4
35,38:24
35,39:11
35,40:5
35,41:4
35,43:16
35,44:13
36,2:7
36,7:4
36,8:12
36,10:7
36,25:8
36,28:1
36,32:6
36,33:3
36,35:18
36,37:14
36,38:6
36,44:5
37,2:21
37,4:14
37,7:10
37,8:2
37,10:7
37,25:6
37,28:13
37,32:20
37,33:11
37,35:4
37,38:20
37,39:7
37,40:1
37,44:9
38,4:6
38,7:10
38,8:18
38,10:13
38,28:7
38,33:9
38,35:24
38,37:20
38,39:13
38,40:19
38,41:20
38,42:24
38,43:8
38,44:11
38,45:13
38,46:4
38,47:17
38,48:19
38,49:13
38,50:3
38,51:9
38,52:20
39,2:14
39,4:7
39,7:3
39,8:5
39,25:1
39,28:6
39,32:13
39,33:4
39,35:11
39,38:13
39,40:6
39,41:7
39,42:11
39,43:5
39,44:2
40,2:20
40,4:13
40,7:9
40,8:1
40,10:6
40,25:5
40,28:12
40,32:19
40,33:10
40,35:5
40,38:19
40,39:6
40,41:1
40,42:5
40,43:11
40,44:8
41,2:21
41,4:14
41,7:10
41,8:2
41,10:7
41,25:6
41,28:13
41,32:20
41,33:11
41,35:4
41,38:20
41,39:7
41,40:1
41,42:4
41,44:9
42,2:25
42,4:18
42,7:14
42,8:6
42,10:11
42,25:10
42,28:17
42,32:24
42,33:15
42,38:24
42,39:11
42,40:5
42,43:16
42,44:13
43,2:9
43,4:2
43,8:10
43,10:5
43,25:6
43,32:8
43,38:8
43,44:3
43,45:5
44,2:12
44,4:5
44,5:4
44,6:4
44,7:1
44,10:2
44,16:10
44,18:1
44,19:4
44,22:7
44,23:8
44,24:1
44,25:3
44,26:8
44,27:13
44,28:4
44,29:11
44,30:1
44,31:9
44,32:11
44,33:2
44,34:2
44,35:13
44,36:5
44,37:9
44,38:11
44,39:2
44,40:8
44,41:9
44,42:13
44,43:3
44,45:2
45,2:14
45,4:7
45,25:1
45,38:13
45,46:9
45,48:6
46,2:5
46,4:2
46,10:9
46,25:10
46,38:4
46,47:13
46,48:15
46,49:9
46,50:1
47,2:18
47,4:11
47,10:4
47,25:3
47,38:17
47,48:2
47,49:4
47,50:14
47,51:8
48,2:20
48,4:13
48,10:6
48,25:5
48,38:19
48,46:15
48,47:2
48,49:6
48,50:16
48,51:10
48,52:1
48,53:11
48,54:2
48,55:14
48,56:18
49,2:14
49,4:7
49,25:1
49,38:13
49,46:9
49,47:4
49,48:6
49,50:10
49,51:4
49,52:7
49,53:5
49,54:8
49,55:8
49,56:12
49,57:1
49,58:11
50,2:4
50,4:3
50,10:10
50,25:11
50,38:3
50,47:14
50,48:16
50,49:10
50,51:6
50,52:17
50,53:5
50,54:18
50,55:2
50,56:2
50,57:11
50,58:21
51,2:10
51,4:3
51,10:4
51,25:5
51,38:9
51,48:10
51,49:4
51,50:6
51,52:11
52,4:14
52,10:7
52,48:1
52,49:7
52,50:17
52,53:12
53,4:2
53,10:5
53,48:11
53,49:5
53,50:5
53,54:13
54,4:15
54,10:8
54,48:2
54,49:8
54,50:18
54,55:16
54,56:20
55,4:1
55,10:8
55,49:8
55,50:2
55,56:4
55,57:9
56,4:5
56,10:12
56,48:18
56,49:12
56,50:2
56,55:4
56,57:13
57,4:8
57,10:1
57,49:1
57,50:11
57,58:10
58,4:18
58,10:11

<setup times backward>
1,1:26
1,2:16
1,3:30
1,4:23
1,5:24
1,6:32
1,7:27
1,8:35
1,10:30
1,12:28
1,16:38
1,18:29
1,19:24
1,22:35
1,23:20
1,24:29
1,27:41
1,28:24
1,30:27
1,32:17
1,33:26
1,34:26
1,35:41
2,1:36
2,2:26
2,3:40
2,4:33
2,5:34
2,6:42
2,7:37
2,8:45
2,9:31
2,10:40
2,11:48
2,12:38
2,13:33
2,14:29
2,15:50
2,16:48
2,17:27
2,18:39
2,19:34
2,20:29
2,21:29
2,22:45
2,23:30
2,24:39
2,26:46
2,27:51
2,28:34
2,29:49
2,30:37
2,31:29
2,32:27
2,33:36
2,34:36
2,35:51
2,36:33
2,37:47
2,39:40
2,40:46
2,41:47
2,42:51
2,43:35
2,44:38
2,45:40
2,46:31
2,47:44
2,48:46
2,49:40
2,50:30
2,51:36
3,1:22
3,2:12
3,3:26
3,4:19
3,5:20
3,6:28
3,7:23
3,8:31
3,9:17
3,10:26
3,11:34
3,12:24
3,13:19
3,14:15
3,15:36
3,16:34
3,17:13
3,18:25
3,19:20
3,20:15
3,23:16
3,24:25
3,25:27
3,28:20
3,32:13
3,33:22
3,35:37
4,1:29
4,2:19
4,3:33
4,4:26
4,5:27
4,6:35
4,7:30
4,8:38
4,9:24
4,11:41
4,12:31
4,13:26
4,14:22
4,15:43
4,16:41
4,17:20
4,18:32
4,19:27
4,20:22
4,21:22
4,22:38
4,23:23
4,24:32
4,25:34
4,26:39
4,27:44
4,28:27
4,29:42
4,30:30
4,31:22
4,32:20
4,33:29
4,34:29
4,35:44
4,36:26
4,37:40
4,38:20
4,39:33
4,40:39
4,41:40
4,42:44
4,43:28
4,44:31
4,45:33
4,46:24
4,47:37
4,48:39
4,49:33
4,50:23
4,51:29
4,52:40
4,53:28
4,54:41
4,55:25
4,56:21
4,57:34
4,58:44
5,1:28
5,2:18
5,3:32
5,4:25
5,5:26
5,6:34
5,7:29
5,8:37
5,9:23
5,10:32
5,11:40
5,12:30
5,13:25
5,14:21
5,15:42
5,16:40
5,17:19
5,18:31
5,19:26
5,20:21
5,21:21
5,22:37
5,23:22
5,24:31
5,25:33
5,26:38
5,27:43
5,28:26
5,29:41
5,30:29
5,31:21
5,32:19
5,33:28
5,34:28
5,35:43
5,44:30
6,1:20
6,2:10
6,3:24
6,4:17
6,5:18
6,6:26
6,7:21
6,8:29
6,9:15
6,10:24
6,11:32
6,12:22
6,13:17
6,14:13
6,15:34
6,16:32
6,17:11
6,18:23
6,19:18
6,20:13
6,21:13
6,22:29
6,25:25
6,26:30
6,27:35
6,28:18
6,29:33
6,30:21
6,32:11
6,33:20
6,34:20
6,35:35
6,44:22
7,1:25
7,2:15
7,3:29
7,4:22
7,5:23
7,6:31
7,7:26
7,8:34
7,9:20
7,10:29
7,11:37
7,12:27
7,13:22
7,14:18
7,15:39
7,16:37
7,17:16
7,18:28
7,19:23
7,20:18
7,21:18
7,22:34
7,23:19
7,24:28
7,25:30
7,26:35
7,27:40
7,28:23
7,29:38
7,30:26
7,31:18
7,32:16
7,33:25
7,34:25
7,35:40
7,36:22
7,37:36
7,38:16
7,39:29
7,40:35
7,41:36
7,42:40
7,44:27
8,1:17
8,2:7
8,3:21
8,4:14
8,5:15
8,6:23
8,7:18
8,8:26
8,9:12
8,10:21
8,11:29
8,12:19
8,13:14
8,14:10
8,15:31
8,16:29
8,17:8
8,18:20
8,19:15
8,20:10
8,21:10
8,22:26
8,23:11
8,24:20
8,25:22
8,26:27
8,27:32
8,28:15
8,29:30
8,30:18
8,31:10
8,32:8
8,33:17
8,34:17
8,35:32
8,36:14
8,37:28
8,38:8
8,39:21
8,40:27
8,41:28
8,42:32
8,43:16
9,1:31
9,2:21
9,3:35
9,4:28
9,5:29
9,6:37
9,7:32
9,8:40
9,9:26
9,10:35
9,12:33
9,16:43
9,18:34
9,19:29
9,22:40
9,23:25
9,24:34
9,27:46
9,28:29
9,30:32
9,32:22
9,33:31
9,34:31
9,35:46
10,1:22
10,2:12
10,3:26
10,4:19
10,5:20
10,6:28
10,7:23
10,8:31
10,9:17
10,10:26
10,11:34
10,12:24
10,13:19
10,14:15
10,15:36
10,16:34
10,17:13
10,18:25
10,19:20
10,20:15
10,21:15
10,22:31
10,23:16
10,24:25
10,25:27
10,26:32
10,27:37
10,28:20
10,29:35
10,30:23
10,31:15
10,32:13
10,33:22
10,34:22
10,35:37
10,36:19
10,37:33
10,38:13
10,39:26
10,40:32
10,41:33
10,42:37
10,43:21
10,44:24
10,45:26
10,46:17
10,47:30
10,48:32
10,49:26
10,50:16
10,51:22
10,52:33
10,53:21
10,54:34
10,55:18
10,56:14
10,57:27
10,58:37
11,1:14
11,2:4
11,3:18
11,4:11
11,5:12
11,6:20
11,7:15
11,8:23
11,9:9
11,10:18
11,11:26
11,12:16
11,16:26
11,18:17
11,19:12
11,22:23
11,23:8
11,24:17
11,27:29
11,28:12
11,30:15
11,32:5
11,33:14
11,34:14
11,35:29
12,1:24
12,2:14
12,3:28
12,4:21
12,5:22
12,6:30
12,7:25
12,8:33
12,9:19
12,10:28
12,11:36
12,12:26
12,13:21
12,14:17
12,15:38
12,16:36
12,18:27
12,19:22
12,22:33
12,23:18
12,24:27
12,27:39
12,28:22
12,30:25
12,32:15
12,33:24
12,34:24
12,35:39
13,1:29
13,2:19
13,3:33
13,4:26
13,5:27
13,6:35
13,7:30
13,8:38
13,9:24
13,10:33
13,11:41
13,12:31
13,13:26
13,14:22
13,15:43
13,16:41
13,18:32
13,19:27
13,22:38
13,23:23
13,24:32
13,27:44
13,28:27
13,30:30
13,32:20
13,33:29
13,34:29
13,35:44
14,1:33
14,2:23
14,3:37
14,4:30
14,5:31
14,6:39
14,7:34
14,8:42
14,9:28
14,10:37
14,11:45
14,12:35
14,13:30
14,14:26
14,15:47
14,16:45
14,18:36
14,19:31
14,22:42
14,23:27
14,24:36
14,27:48
14,28:31
14,30:34
14,32:24
14,33:33
14,34:33
14,35:48
15,1:12
15,2:2
15,3:16
15,4:9
15,5:10
15,6:18
15,7:13
15,8:21
15,9:7
15,10:16
15,11:24
15,12:14
15,13:9
15,14:5
15,15:26
15,16:24
15,18:15
15,19:10
15,22:21
15,23:6
15,24:15
15,27:27
15,28:10
15,30:13
15,32:3
15,33:12
15,34:12
15,35:27
16,1:14
16,2:4
16,3:18
16,4:11
16,5:12
16,6:20
16,7:15
16,8:23
16,9:9
16,10:18
16,11:26
16,12:16
16,13:11
16,14:7
16,15:28
16,16:26
16,17:5
16,20:7
16,21:7
16,22:23
16,24:17
16,25:19
16,26:24
16,27:29
16,28:12
16,29:27
16,30:15
16,32:5
16,33:14
16,34:14
16,35:29
16,44:16
17,1:35
17,2:25
17,3:39
17,4:32
17,5:33
17,6:41
17,7:36
17,8:44
17,9:30
17,10:39
17,11:47
17,12:37
17,13:32
17,14:28
17,15:49
17,16:47
17,17:26
17,18:38
17,19:33
17,22:44
17,23:29
17,24:38
17,27:50
17,28:33
17,30:36
17,32:26
17,33:35
17,34:35
17,35:50
18,1:23
18,2:13
18,3:27
18,4:20
18,5:21
18,6:29
18,7:24
18,8:32
18,9:18
18,10:27
18,11:35
18,12:25
18,13:20
18,14:16
18,15:37
18,16:35
18,17:14
18,18:26
18,20:16
18,21:16
18,22:32
18,24:26
18,25:28
18,26:33
18,27:38
18,28:21
18,29:36
18,30:24
18,32:14
18,33:23
18,34:23
18,35:38
18,44:25
19,1:28
19,2:18
19,3:32
19,4:25
19,5:26
19,6:34
19,7:29
19,8:37
19,9:23
19,10:32
19,11:40
19,12:30
19,13:25
19,14:21
19,15:42
19,16:40
19,17:19
19,18:31
19,19:26
19,20:21
19,21:21
19,22:37
19,24:31
19,25:33
19,26:38
19,27:43
19,28:26
19,29:41
19,30:29
19,32:19
19,33:28
19,34:28
19,35:43
19,44:30
20,1:33
20,2:23
20,3:37
20,4:30
20,5:31
20,6:39
20,7:34
20,8:42
20,9:28
20,10:37
20,11:45
20,12:35
20,13:30
20,14:26
20,15:47
20,16:45
20,17:24
20,18:36
20,19:31
20,20:26
20,22:42
20,23:27
20,24:36
20,27:48
20,28:31
20,30:34
20,32:24
20,33:33
20,34:33
20,35:48
21,1:33
21,2:23
21,3:37
21,4:30
21,5:31
21,6:39
21,7:34
21,8:42
21,9:28
21,10:37
21,11:45
21,12:35
21,13:30
21,14:26
21,15:47
21,16:45
21,17:24
21,18:36
21,19:31
21,20:26
21,21:26
21,22:42
21,23:27
21,24:36
21,25:38
21,27:48
21,28:31
21,30:34
21,32:24
21,33:33
21,34:33
21,35:48
22,1:17
22,2:7
22,3:21
22,4:14
22,5:15
22,6:23
22,7:18
22,8:26
22,9:12
22,10:21
22,11:29
22,12:19
22,13:14
22,14:10
22,15:31
22,16:29
22,17:8
22,18:20
22,19:15
22,20:10
22,21:10
22,22:26
22,23:11
22,24:20
22,25:22
22,26:27
22,28:15
22,29:30
22,31:10
22,32:8
22,33:17
22,35:32
22,44:19
23,1:32
23,2:22
23,3:36
23,4:29
23,5:30
23,6:38
23,7:33
23,8:41
23,9:27
23,10:36
23,11:44
23,12:34
23,13:29
23,14:25
23,15:46
23,16:44
23,17:23
23,18:35
23,19:30
23,20:25
23,21:25
23,22:41
23,23:26
23,24:35
23,25:37
23,26:42
23,27:47
23,28:30
23,29:45
23,30:33
23,32:23
23,33:32
23,34:32
23,35:47
23,44:34
24,1:23
24,2:13
24,3:27
24,4:20
24,5:21
24,6:29
24,7:24
24,8:32
24,9:18
24,10:27
24,11:35
24,12:25
24,13:20
24,14:16
24,15:37
24,16:35
24,17:14
24,18:26
24,19:21
24,20:16
24,21:16
24,22:32
24,23:17
24,24:26
24,25:28
24,26:33
24,27:38
24,28:21
24,29:36
24,30:24
24,32:14
24,33:23
24,34:23
24,35:38
24,44:25
25,1:21
25,2:11
25,3:25
25,4:18
25,5:19
25,6:27
25,7:22
25,8:30
25,9:16
25,10:25
25,11:33
25,12:23
25,13:18
25,14:14
25,15:35
25,16:33
25,17:12
25,18:24
25,19:19
25,20:14
25,21:14
25,22:30
25,23:15
25,24:24
25,25:26
25,26:31
25,27:36
25,28:19
25,29:34
25,30:22
25,31:14
25,32:12
25,33:21
25,34:21
25,35:36
25,36:18
25,37:32
25,39:25
25,40:31
25,41:32
25,42:36
25,43:20
25,44:23
25,45:25
25,46:16
25,47:29
25,48:31
25,49:25
25,50:15
25,51:21
26,1:16
26,2:6
26,3:20
26,4:13
26,5:14
26,6:22
26,7:17
26,8:25
26,9:11
26,10:20
26,11:28
26,12:18
26,13:13
26,14:9
26,15:30
26,16:28
26,17:7
26,18:19
26,19:14
26,20:9
26,21:9
26,22:25
26,23:10
26,24:19
26,25:21
26,26:26
26,27:31
26,28:14
26,30:17
26,32:7
26,33:16
26,34:16
26,35:31
26,44:18
27,1:11
27,2:1
27,3:15
27,4:8
27,5:9
27,6:17
27,7:12
27,8:20
27,9:6
27,10:15
27,11:23
27,12:13
27,13:8
27,14:4
27,15:25
27,16:23
27,17:2
27,18:14
27,19:9
27,20:4
27,21:4
27,22:20
27,23:5
27,24:14
27,25:16
27,26:21
27,27:26
27,28:9
27,29:24
27,31:4
27,32:2
27,33:11
27,35:26
27,44:13
28,1:28
28,2:18
28,3:32
28,4:25
28,5:26
28,6:34
28,7:29
28,8:37
28,9:23
28,10:32
28,11:40
28,12:30
28,13:25
28,14:21
28,15:42
28,16:40
28,17:19
28,18:31
28,19:26
28,20:21
28,21:21
28,22:37
28,23:22
28,24:31
28,25:33
28,26:38
28,27:43
28,28:26
28,29:41
28,30:29
28,31:21
28,34:28
28,36:25
28,37:39
28,38:19
28,39:32
28,40:38
28,41:39
28,42:43
28,44:30
29,1:13
29,2:3
29,3:17
29,4:10
29,5:11
29,6:19
29,7:14
29,8:22
29,9:8
29,10:17
29,11:25
29,12:15
29,13:10
29,14:6
29,15:27
29,16:25
29,17:4
29,18:16
29,19:11
29,20:6
29,21:6
29,22:22
29,23:7
29,24:16
29,25:18
29,26:23
29,27:28
29,28:11
29,29:26
29,30:14
29,32:4
29,33:13
29,34:13
29,35:28
29,44:15
30,1:25
30,2:15
30,3:29
30,4:22
30,5:23
30,6:31
30,7:26
30,8:34
30,9:20
30,10:29
30,11:37
30,12:27
30,13:22
30,14:18
30,15:39
30,16:37
30,17:16
30,18:28
30,19:23
30,20:18
30,21:18
30,22:34
30,23:19
30,24:28
30,25:30
30,26:35
30,27:40
30,28:23
30,29:38
30,30:26
30,31:18
30,32:16
30,33:25
30,35:40
30,44:27
31,1:33
31,2:23
31,3:37
31,4:30
31,5:31
31,6:39
31,7:34
31,8:42
31,9:28
31,10:37
31,11:45
31,12:35
31,13:30
31,14:26
31,15:47
31,16:45
31,17:24
31,18:36
31,19:31
31,20:26
31,21:26
31,22:42
31,23:27
31,24:36
31,25:38
31,26:43
31,27:48
31,28:31
31,29:46
31,30:34
31,31:26
31,32:24
31,33:33
31,34:33
31,35:48
31,44:35
32,1:35
32,2:25
32,3:39
32,4:32
32,5:33
32,6:41
32,7:36
32,8:44
32,9:30
32,10:39
32,11:47
32,12:37
32,13:32
32,14:28
32,15:49
32,16:47
32,17:26
32,18:38
32,19:33
32,20:28
32,21:28
32,22:44
32,23:29
32,24:38
32,25:40
32,26:45
32,27:50
32,28:33
32,29:48
32,30:36
32,31:28
32,32:26
32,33:35
32,34:35
32,35:50
32,36:32
32,37:46
32,38:26
32,39:39
32,40:45
32,41:46
32,42:50
32,43:34
32,44:37
33,1:26
33,2:16
33,3:30
33,4:23
33,5:24
33,6:32
33,7:27
33,8:35
33,9:21
33,10:30
33,11:38
33,12:28
33,13:23
33,14:19
33,15:40
33,16:38
33,17:17
33,18:29
33,19:24
33,20:19
33,21:19
33,22:35
33,23:20
33,24:29
33,25:31
33,26:36
33,27:41
33,28:24
33,29:39
33,30:27
33,31:19
33,32:17
33,33:26
33,34:26
33,36:23
33,37:37
33,38:17
33,39:30
33,40:36
33,41:37
33,42:41
33,44:28
34,1:26
34,2:16
34,3:30
34,4:23
34,5:24
34,6:32
34,7:27
34,8:35
34,9:21
34,10:30
34,11:38
34,12:28
34,13:23
34,14:19
34,15:40
34,16:38
34,17:17
34,18:29
34,19:24
34,20:19
34,21:19
34,22:35
34,23:20
34,24:29
34,25:31
34,26:36
34,27:41
34,28:24
34,29:39
34,30:27
34,31:19
34,32:17
34,33:26
34,34:26
34,35:41
34,44:28
35,1:11
35,2:1
35,3:15
35,4:8
35,5:9
35,6:17
35,7:12
35,8:20
35,9:6
35,10:15
35,11:23
35,12:13
35,13:8
35,14:4
35,15:25
35,16:23
35,17:2
35,18:14
35,19:9
35,20:4
35,21:4
35,22:20
35,23:5
35,24:14
35,25:16
35,26:21
35,27:26
35,28:9
35,29:24
35,30:12
35,31:4
35,32:2
35,33:11
35,34:11
35,35:26
35,36:8
35,37:22
35,38:2
35,39:15
35,40:21
35,41:22
35,42:26
35,44:13
36,1:29
36,2:19
36,3:33
36,4:26
36,5:27
36,6:35
36,7:30
36,8:38
36,9:24
36,10:33
36,11:41
36,12:31
36,13:26
36,14:22
36,15:43
36,16:41
36,17:20
36,18:32
36,19:27
36,20:22
36,21:22
36,22:38
36,23:23
36,24:32
36,25:34
36,26:39
36,27:44
36,28:27
36,29:42
36,30:30
36,31:22
36,32:20
36,33:29
36,34:29
36,35:44
36,36:26
36,44:31
37,1:15
37,2:5
37,3:19
37,4:12
37,5:13
37,6:21
37,7:16
37,8:24
37,9:10
37,10:19
37,11:27
37,12:17
37,13:12
37,14:8
37,15:29
37,16:27
37,17:6
37,18:18
37,19:13
37,20:8
37,21:8
37,22:24
37,23:9
37,24:18
37,25:20
37,26:25
37,27:30
37,28:13
37,29:28
37,30:16
37,31:8
37,32:6
37,33:15
37,34:15
37,35:30
37,36:12
37,37:26
37,38:6
37,44:17
38,1:35
38,2:25
38,3:39
38,4:32
38,5:33
38,6:41
38,7:36
38,8:44
38,9:30
38,10:39
38,11:47
38,12:37
38,13:32
38,14:28
38,15:49
38,16:47
38,17:26
38,18:38
38,19:33
38,20:28
38,21:28
38,22:44
38,23:29
38,24:38
38,25:40
38,26:45
38,27:50
38,28:33
38,29:48
38,30:36
38,31:28
38,32:26
38,33:35
38,34:35
38,35:50
38,36:32
38,37:46
38,38:26
38,39:39
38,40:45
38,41:46
38,42:50
38,43:34
38,44:37
38,45:39
38,46:30
38,47:43
38,48:45
38,49:39
38,50:29
38,51:35
39,1:22
39,2:12
39,3:26
39,4:19
39,5:20
39,6:28
39,7:23
39,8:31
39,9:17
39,10:26
39,11:34
39,12:24
39,13:19
39,14:15
39,15:36
39,16:34
39,17:13
39,18:25
39,19:20
39,20:15
39,21:15
39,22:31
39,23:16
39,24:25
39,25:27
39,26:32
39,27:37
39,28:20
39,29:35
39,30:23
39,31:15
39,32:13
39,33:22
39,34:22
39,35:37
39,36:19
39,37:33
39,38:13
39,39:26
39,40:32
39,41:33
39,42:37
39,44:24
40,1:16
40,2:6
40,3:20
40,4:13
40,5:14
40,6:22
40,7:17
40,8:25
40,9:11
40,10:20
40,11:28
40,12:18
40,13:13
40,14:9
40,15:30
40,16:28
40,17:7
40,18:19
40,19:14
40,20:9
40,21:9
40,22:25
40,23:10
40,24:19
40,25:21
40,26:26
40,27:31
40,28:14
40,29:29
40,30:17
40,31:9
40,32:7
40,33:16
40,34:16
40,35:31
40,36:13
40,37:27
40,38:7
40,39:20
40,40:26
40,41:27
40,42:31
40,44:18
41,1:15
41,2:5
41,3:19
41,4:12
41,5:13
41,6:21
41,7:16
41,8:24
41,9:10
41,10:19
41,11:27
41,12:17
41,13:12
41,14:8
41,15:29
41,16:27
41,17:6
41,18:18
41,19:13
41,20:8
41,21:8
41,22:24
41,23:9
41,24:18
41,25:20
41,26:25
41,27:30
41,28:13
41,29:28
41,30:16
41,31:8
41,32:6
41,33:15
41,34:15
41,35:30
41,36:12
41,37:26
41,38:6
41,39:19
41,40:25
41,41:26
41,44:17
42,1:11
42,2:1
42,3:15
42,4:8
42,5:9
42,6:17
42,7:12
42,8:20
42,9:6
42,10:15
42,11:23
42,12:13
42,13:8
42,14:4
42,15:25
42,16:23
42,17:2
42,18:14
42,19:9
42,20:4
42,21:4
42,22:20
42,23:5
42,24:14
42,25:16
42,26:21
42,27:26
42,28:9
42,29:24
42,30:12
42,31:4
42,32:2
42,33:11
42,34:11
42,35:26
42,36:8
42,37:22
42,38:2
42,39:15
42,40:21
42,41:22
42,42:26
42,44:13
43,1:27
43,2:17
43,3:31
43,4:24
43,5:25
43,6:33
43,7:28
43,8:36
43,9:22
43,10:31
43,11:39
43,12:29
43,13:24
43,14:20
43,15:41
43,16:39
43,17:18
43,18:30
43,19:25
43,20:20
43,21:20
43,22:36
43,23:21
43,24:30
43,25:32
43,26:37
43,27:42
43,28:25
43,29:40
43,30:28
43,31:20
43,32:18
43,33:27
43,34:27
43,35:42
43,36:24
43,37:38
43,38:18
43,39:31
43,40:37
43,41:38
43,42:42
43,43:26
43,44:29
44,1:24
44,2:14
44,3:28
44,4:21
44,5:22
44,6:30
44,7:25
44,8:33
44,9:19
44,10:28
44,11:36
44,12:26
44,13:21
44,14:17
44,15:38
44,16:36
44,17:15
44,18:27
44,19:22
44,20:17
44,21:17
44,22:33
44,23:18
44,24:27
44,25:29
44,26:34
44,27:39
44,28:22
44,29:37
44,30:25
44,31:17
44,32:15
44,33:24
44,34:24
44,35:39
44,36:21
44,37:35
44,38:15
44,39:28
44,40:34
44,41:35
44,42:39
44,43:23
44,44:26
45,1:22
45,2:12
45,3:26
45,4:19
45,5:20
45,6:28
45,7:23
45,8:31
45,9:17
45,10:26
45,11:34
45,12:24
45,13:19
45,14:15
45,15:36
45,16:34
45,17:13
45,18:25
45,19:20
45,20:15
45,21:15
45,22:31
45,23:16
45,24:25
45,25:27
45,26:32
45,27:37
45,28:20
45,29:35
45,30:23
45,31:15
45,32:13
45,33:22
45,34:22
45,35:37
45,36:19
45,37:33
45,38:13
45,39:26
45,40:32
45,41:33
45,42:37
45,43:21
45,44:24
45,45:26
46,1:31
46,2:21
46,3:35
46,4:28
46,5:29
46,6:37
46,7:32
46,8:40
46,9:26
46,10:35
46,11:43
46,12:33
46,13:28
46,14:24
46,15:45
46,16:43
46,17:22
46,18:34
46,19:29
46,20:24
46,21:24
46,22:40
46,23:25
46,24:34
46,25:36
46,26:41
46,27:46
46,28:29
46,29:44
46,30:32
46,31:24
46,32:22
46,33:31
46,34:31
46,35:46
46,36:28
46,37:42
46,38:22
46,39:35
46,40:41
46,41:42
46,42:46
46,43:30
46,44:33
46,45:35
46,46:26
46,48:41
46,49:35
47,1:18
47,2:8
47,3:22
47,4:15
47,5:16
47,6:24
47,7:19
47,8:27
47,9:13
47,10:22
47,11:30
47,12:20
47,13:15
47,14:11
47,15:32
47,16:30
47,17:9
47,18:21
47,19:16
47,20:11
47,21:11
47,22:27
47,23:12
47,24:21
47,25:23
47,26:28
47,27:33
47,28:16
47,29:31
47,30:19
47,31:11
47,32:9
47,33:18
47,34:18
47,35:33
47,36:15
47,37:29
47,38:9
47,39:22
47,40:28
47,41:29
47,42:33
47,43:17
47,44:20
47,45:22
47,46:13
47,47:26
47,48:28
47,49:22
47,50:12
48,1:16
48,2:6
48,3:20
48,4:13
48,5:14
48,6:22
48,7:17
48,8:25
48,9:11
48,10:20
48,11:28
48,12:18
48,13:13
48,14:9
48,15:30
48,16:28
48,17:7
48,18:19
48,19:14
48,20:9
48,21:9
48,22:25
48,23:10
48,24:19
48,25:21
48,26:26
48,27:31
48,28:14
48,29:29
48,30:17
48,31:9
48,32:7
48,33:16
48,34:16
48,35:31
48,36:13
48,37:27
48,38:7
48,39:20
48,40:26
48,41:27
48,42:31
48,43:15
48,44:18
48,45:20
48,46:11
48,47:24
48,48:26
48,49:20
48,50:10
48,51:16
48,52:27
48,53:15
48,54:28
48,56:8
49,1:22
49,2:12
49,3:26
49,4:19
49,5:20
49,6:28
49,7:23
49,8:31
49,9:17
49,10:26
49,11:34
49,12:24
49,13:19
49,14:15
49,15:36
49,16:34
49,17:13
49,18:25
49,19:20
49,20:15
49,21:15
49,22:31
49,23:16
49,24:25
49,25:27
49,26:32
49,27:37
49,28:20
49,29:35
49,30:23
49,31:15
49,32:13
49,33:22
49,34:22
49,35:37
49,36:19
49,37:33
49,38:13
49,39:26
49,40:32
49,41:33
49,42:37
49,43:21
49,44:24
49,45:26
49,46:17
49,47:30
49,48:32
49,49:26
49,50:16
49,51:22
49,52:33
49,53:21
49,54:34
49,55:18
49,56:14
49,57:27
50,1:32
50,2:22
50,3:36
50,4:29
50,5:30
50,6:38
50,7:33
50,8:41
50,9:27
50,10:36
50,11:44
50,12:34
50,13:29
50,14:25
50,15:46
50,16:44
50,17:23
50,18:35
50,19:30
50,20:25
50,21:25
50,22:41
50,23:26
50,24:35
50,25:37
50,26:42
50,27:47
50,28:30
50,29:45
50,30:33
50,31:25
50,32:23
50,33:32
50,34:32
50,35:47
50,36:29
50,37:43
50,38:23
50,39:36
50,40:42
50,41:43
50,42:47
50,43:31
50,44:34
50,45:36
50,46:27
50,47:40
50,48:42
50,49:36
50,50:26
50,51:32
50,52:43
50,53:31
50,54:44
50,55:28
50,56:24
50,57:37
51,1:26
51,2:16
51,3:30
51,4:23
51,5:24
51,6:32
51,7:27
51,8:35
51,9:21
51,10:30
51,11:38
51,12:28
51,13:23
51,14:19
51,15:40
51,16:38
51,17:17
51,18:29
51,19:24
51,20:19
51,21:19
51,22:35
51,23:20
51,24:29
51,25:31
51,26:36
51,27:41
51,28:24
51,29:39
51,30:27
51,31:19
51,32:17
51,33:26
51,34:26
51,35:41
51,36:23
51,37:37
51,38:17
51,39:30
51,40:36
51,41:37
51,42:41
51,43:25
51,44:28
51,45:30
51,46:21
51,47:34
51,48:36
51,49:30
51,50:20
51,51:26
52,1:15
52,2:5
52,3:19
52,4:12
52,5:13
52,6:21
52,7:16
52,8:24
52,9:10
52,10:19
52,11:27
52,12:17
52,13:12
52,14:8
52,15:29
52,16:27
52,17:6
52,18:18
52,19:13
52,20:8
52,21:8
52,22:24
52,23:9
52,24:18
52,25:20
52,26:25
52,27:30
52,28:13
52,29:28
52,30:16
52,31:8
52,32:6
52,33:15
52,34:15
52,35:30
52,36:12
52,37:26
52,38:6
52,39:19
52,40:25
52,41:26
52,42:30
52,43:14
52,44:17
52,45:19
52,46:10
52,47:23
52,48:25
52,49:19
52,50:9
52,51:15
52,52:26
53,1:27
53,2:17
53,3:31
53,4:24
53,5:25
53,6:33
53,7:28
53,8:36
53,9:22
53,10:31
53,11:39
53,12:29
53,13:24
53,14:20
53,15:41
53,16:39
53,17:18
53,18:30
53,19:25
53,20:20
53,21:20
53,22:36
53,23:21
53,24:30
53,25:32
53,26:37
53,27:42
53,28:25
53,29:40
53,30:28
53,31:20
53,32:18
53,33:27
53,34:27
53,35:42
53,36:24
53,37:38
53,38:18
53,39:31
53,40:37
53,41:38
53,42:42
53,43:26
53,44:29
53,45:31
53,46:22
53,47:35
53,48:37
53,49:31
53,50:21
53,51:27
53,52:38
53,53:26
54,1:14
54,2:4
54,3:18
54,4:11
54,5:12
54,6:20
54,7:15
54,8:23
54,9:9
54,10:18
54,11:26
54,12:16
54,13:11
54,14:7
54,15:28
54,16:26
54,17:5
54,18:17
54,19:12
54,20:7
54,21:7
54,22:23
54,23:8
54,24:17
54,25:19
54,26:24
54,27:29
54,28:12
54,29:27
54,30:15
54,31:7
54,32:5
54,33:14
54,34:14
54,35:29
54,36:11
54,37:25
54,38:5
54,39:18
54,40:24
54,41:25
54,42:29
54,43:13
54,44:16
54,45:18
54,46:9
54,47:22
54,48:24
54,49:18
54,50:8
54,51:14
54,52:25
54,53:13
54,54:26
55,1:30
55,2:20
55,3:34
55,4:27
55,5:28
55,6:36
55,7:31
55,8:39
55,9:25
55,10:34
55,11:42
55,12:32
55,13:27
55,14:23
55,15:44
55,16:42
55,17:21
55,18:33
55,19:28
55,20:23
55,21:23
55,22:39
55,23:24
55,24:33
55,25:35
55,26:40
55,27:45
55,28:28
55,29:43
55,30:31
55,31:23
55,32:21
55,33:30
55,34:30
55,35:45
55,36:27
55,37:41
55,38:21
55,39:34
55,40:40
55,41:41
55,42:45
55,43:29
55,44:32
55,45:34
55,46:25
55,47:38
55,48:40
55,49:34
55,50:24
55,51:30
55,52:41
55,53:29
55,54:42
55,55:26
55,56:22
56,1:34
56,2:24
56,3:38
56,4:31
56,5:32
56,6:40
56,7:35
56,8:43
56,9:29
56,10:38
56,11:46
56,12:36
56,13:31
56,14:27
56,15:48
56,16:46
56,17:25
56,18:37
56,19:32
56,20:27
56,21:27
56,22:43
56,23:28
56,24:37
56,25:39
56,26:44
56,27:49
56,28:32
56,29:47
56,30:35
56,31:27
56,32:25
56,33:34
56,34:34
56,35:49
56,36:31
56,37:45
56,38:25
56,39:38
56,40:44
56,41:45
56,42:49
56,43:33
56,44:36
56,45:38
56,46:29
56,47:42
56,48:44
56,49:38
56,50:28
56,51:34
56,52:45
56,53:33
56,54:46
56,55:30
56,56:26
57,1:21
57,2:11
57,3:25
57,4:18
57,5:19
57,6:27
57,7:22
57,8:30
57,9:16
57,10:25
57,11:33
57,12:23
57,13:18
57,14:14
57,15:35
57,16:33
57,17:12
57,18:24
57,19:19
57,20:14
57,21:14
57,22:30
57,23:15
57,24:24
57,25:26
57,26:31
57,27:36
57,28:19
57,29:34
57,30:22
57,31:14
57,32:12
57,33:21
57,34:21
57,35:36
57,36:18
57,37:32
57,38:12
57,39:25
57,40:31
57,41:32
57,42:36
57,43:20
57,44:23
57,45:25
57,46:16
57,47:29
57,48:31
57,49:25
57,50:15
57,51:21
57,52:32
57,53:20
57,54:33
57,55:17
57,56:13
57,57:26
58,1:11
58,2:1
58,3:15
58,4:8
58,5:9
58,6:17
58,7:12
58,8:20
58,9:6
58,10:15
58,11:23
58,12:13
58,13:8
58,14:4
58,15:25
58,16:23
58,17:2
58,18:14
58,19:9
58,20:4
58,21:4
58,22:20
58,23:5
58,24:14
58,25:16
58,26:21
58,27:26
58,28:9
58,29:24
58,30:12
58,31:4
58,32:2
58,33:11
58,34:11
58,35:26
58,36:8
58,37:22
58,38:2
58,39:15
58,40:21
58,41:22
58,42:26
58,43:10
58,44:13
58,45:15
58,46:6
58,47:19
58,48:21
58,49:15
58,50:5
58,51:11
58,52:22
58,53:10
58,54:23
58,55:7
58,56:3
58,57:16
58,58:26

<end>

<optimal SALBP-1 value>
17


<rand seed>
467321153

<Lower Bounds>
Lm1=17
Lms1=17
Lm2=7
Lm3=12
Lm4=18
Best=18

<Optimal Stations (Iterations: 10)>
33
